\ Model birth-death-regulation-capture-efficiency
\ LP format - for model browsing. Use MPS format to capture full model detail.
Minimize
  k_reg
Subject To
 R0: k_deg_2 = 1
 B_lb_0,_0: p[0,0] + 0.5 p[0,1] + 0.25 p[0,2] + 0.125 p[0,3]
   + 0.0625 p[0,4] + 0.03125 p[0,5] + 0.5 p[1,0] + 0.25 p[1,1]
   + 0.125 p[1,2] + 0.0625 p[1,3] + 0.03125 p[1,4] + 0.015625 p[1,5]
   + 0.25 p[2,0] + 0.125 p[2,1] + 0.0625 p[2,2] + 0.03125 p[2,3]
   + 0.015625 p[2,4] + 0.0078125 p[2,5] + 0.125 p[3,0] + 0.0625 p[3,1]
   + 0.03125 p[3,2] + 0.015625 p[3,3] + 0.0078125 p[3,4]
   + 0.00390625 p[3,5] + 0.0625 p[4,0] + 0.03125 p[4,1] + 0.015625 p[4,2]
   + 0.0078125 p[4,3] + 0.00390625 p[4,4] + 0.001953125 p[4,5]
   + 0.03125 p[5,0] + 0.015625 p[5,1] + 0.0078125 p[5,2]
   + 0.00390625 p[5,3] + 0.001953125 p[5,4] + 9.765625e-04 p[5,5]
   >= 0.5341333333333333
 B_ub_0,_0: p[0,0] + 0.5 p[0,1] + 0.25 p[0,2] + 0.125 p[0,3]
   + 0.0625 p[0,4] + 0.03125 p[0,5] + 0.5 p[1,0] + 0.25 p[1,1]
   + 0.125 p[1,2] + 0.0625 p[1,3] + 0.03125 p[1,4] + 0.015625 p[1,5]
   + 0.25 p[2,0] + 0.125 p[2,1] + 0.0625 p[2,2] + 0.03125 p[2,3]
   + 0.015625 p[2,4] + 0.0078125 p[2,5] + 0.125 p[3,0] + 0.0625 p[3,1]
   + 0.03125 p[3,2] + 0.015625 p[3,3] + 0.0078125 p[3,4]
   + 0.00390625 p[3,5] + 0.0625 p[4,0] + 0.03125 p[4,1] + 0.015625 p[4,2]
   + 0.0078125 p[4,3] + 0.00390625 p[4,4] + 0.001953125 p[4,5]
   + 0.03125 p[5,0] + 0.015625 p[5,1] + 0.0078125 p[5,2]
   + 0.00390625 p[5,3] + 0.001953125 p[5,4] + 9.765625e-04 p[5,5]
   <= 0.5756
 B_lb_0,_1: 0.5 p[0,1] + 0.5 p[0,2] + 0.375 p[0,3] + 0.25 p[0,4]
   + 0.15625 p[0,5] + 0.25 p[1,1] + 0.25 p[1,2] + 0.1875 p[1,3]
   + 0.125 p[1,4] + 0.078125 p[1,5] + 0.125 p[2,1] + 0.125 p[2,2]
   + 0.09375 p[2,3] + 0.0625 p[2,4] + 0.0390625 p[2,5] + 0.0625 p[3,1]
   + 0.0625 p[3,2] + 0.046875 p[3,3] + 0.03125 p[3,4] + 0.01953125 p[3,5]
   + 0.03125 p[4,1] + 0.03125 p[4,2] + 0.0234375 p[4,3] + 0.015625 p[4,4]
   + 0.009765625 p[4,5] + 0.015625 p[5,1] + 0.015625 p[5,2]
   + 0.01171875 p[5,3] + 0.0078125 p[5,4] + 0.0048828125 p[5,5]
   >= 0.1541333333333333
 B_ub_0,_1: 0.5 p[0,1] + 0.5 p[0,2] + 0.375 p[0,3] + 0.25 p[0,4]
   + 0.15625 p[0,5] + 0.25 p[1,1] + 0.25 p[1,2] + 0.1875 p[1,3]
   + 0.125 p[1,4] + 0.078125 p[1,5] + 0.125 p[2,1] + 0.125 p[2,2]
   + 0.09375 p[2,3] + 0.0625 p[2,4] + 0.0390625 p[2,5] + 0.0625 p[3,1]
   + 0.0625 p[3,2] + 0.046875 p[3,3] + 0.03125 p[3,4] + 0.01953125 p[3,5]
   + 0.03125 p[4,1] + 0.03125 p[4,2] + 0.0234375 p[4,3] + 0.015625 p[4,4]
   + 0.009765625 p[4,5] + 0.015625 p[5,1] + 0.015625 p[5,2]
   + 0.01171875 p[5,3] + 0.0078125 p[5,4] + 0.0048828125 p[5,5] <= 0.189
 B_lb_0,_2: 0.25 p[0,2] + 0.375 p[0,3] + 0.375 p[0,4] + 0.3125 p[0,5]
   + 0.125 p[1,2] + 0.1875 p[1,3] + 0.1875 p[1,4] + 0.15625 p[1,5]
   + 0.0625 p[2,2] + 0.09375 p[2,3] + 0.09375 p[2,4] + 0.078125 p[2,5]
   + 0.03125 p[3,2] + 0.046875 p[3,3] + 0.046875 p[3,4] + 0.0390625 p[3,5]
   + 0.015625 p[4,2] + 0.0234375 p[4,3] + 0.0234375 p[4,4]
   + 0.01953125 p[4,5] + 0.0078125 p[5,2] + 0.01171875 p[5,3]
   + 0.01171875 p[5,4] + 0.009765625 p[5,5] >= 0.0155333333333333
 B_ub_0,_2: 0.25 p[0,2] + 0.375 p[0,3] + 0.375 p[0,4] + 0.3125 p[0,5]
   + 0.125 p[1,2] + 0.1875 p[1,3] + 0.1875 p[1,4] + 0.15625 p[1,5]
   + 0.0625 p[2,2] + 0.09375 p[2,3] + 0.09375 p[2,4] + 0.078125 p[2,5]
   + 0.03125 p[3,2] + 0.046875 p[3,3] + 0.046875 p[3,4] + 0.0390625 p[3,5]
   + 0.015625 p[4,2] + 0.0234375 p[4,3] + 0.0234375 p[4,4]
   + 0.01953125 p[4,5] + 0.0078125 p[5,2] + 0.01171875 p[5,3]
   + 0.01171875 p[5,4] + 0.009765625 p[5,5] <= 0.0392
 B_lb_1,_0: 0.5 p[1,0] + 0.25 p[1,1] + 0.125 p[1,2] + 0.0625 p[1,3]
   + 0.03125 p[1,4] + 0.015625 p[1,5] + 0.5 p[2,0] + 0.25 p[2,1]
   + 0.125 p[2,2] + 0.0625 p[2,3] + 0.03125 p[2,4] + 0.015625 p[2,5]
   + 0.375 p[3,0] + 0.1875 p[3,1] + 0.09375 p[3,2] + 0.046875 p[3,3]
   + 0.0234375 p[3,4] + 0.01171875 p[3,5] + 0.25 p[4,0] + 0.125 p[4,1]
   + 0.0625 p[4,2] + 0.03125 p[4,3] + 0.015625 p[4,4] + 0.0078125 p[4,5]
   + 0.15625 p[5,0] + 0.078125 p[5,1] + 0.0390625 p[5,2]
   + 0.01953125 p[5,3] + 0.009765625 p[5,4] + 0.0048828125 p[5,5]
   >= 0.1397333333333333
 B_ub_1,_0: 0.5 p[1,0] + 0.25 p[1,1] + 0.125 p[1,2] + 0.0625 p[1,3]
   + 0.03125 p[1,4] + 0.015625 p[1,5] + 0.5 p[2,0] + 0.25 p[2,1]
   + 0.125 p[2,2] + 0.0625 p[2,3] + 0.03125 p[2,4] + 0.015625 p[2,5]
   + 0.375 p[3,0] + 0.1875 p[3,1] + 0.09375 p[3,2] + 0.046875 p[3,3]
   + 0.0234375 p[3,4] + 0.01171875 p[3,5] + 0.25 p[4,0] + 0.125 p[4,1]
   + 0.0625 p[4,2] + 0.03125 p[4,3] + 0.015625 p[4,4] + 0.0078125 p[4,5]
   + 0.15625 p[5,0] + 0.078125 p[5,1] + 0.0390625 p[5,2]
   + 0.01953125 p[5,3] + 0.009765625 p[5,4] + 0.0048828125 p[5,5]
   <= 0.1738
 B_lb_1,_1: 0.25 p[1,1] + 0.25 p[1,2] + 0.1875 p[1,3] + 0.125 p[1,4]
   + 0.078125 p[1,5] + 0.25 p[2,1] + 0.25 p[2,2] + 0.1875 p[2,3]
   + 0.125 p[2,4] + 0.078125 p[2,5] + 0.1875 p[3,1] + 0.1875 p[3,2]
   + 0.140625 p[3,3] + 0.09375 p[3,4] + 0.05859375 p[3,5] + 0.125 p[4,1]
   + 0.125 p[4,2] + 0.09375 p[4,3] + 0.0625 p[4,4] + 0.0390625 p[4,5]
   + 0.078125 p[5,1] + 0.078125 p[5,2] + 0.05859375 p[5,3]
   + 0.0390625 p[5,4] + 0.0244140625 p[5,5] >= 0.00433333333333333
 B_ub_1,_1: 0.25 p[1,1] + 0.25 p[1,2] + 0.1875 p[1,3] + 0.125 p[1,4]
   + 0.078125 p[1,5] + 0.25 p[2,1] + 0.25 p[2,2] + 0.1875 p[2,3]
   + 0.125 p[2,4] + 0.078125 p[2,5] + 0.1875 p[3,1] + 0.1875 p[3,2]
   + 0.140625 p[3,3] + 0.09375 p[3,4] + 0.05859375 p[3,5] + 0.125 p[4,1]
   + 0.125 p[4,2] + 0.09375 p[4,3] + 0.0625 p[4,4] + 0.0390625 p[4,5]
   + 0.078125 p[5,1] + 0.078125 p[5,2] + 0.05859375 p[5,3]
   + 0.0390625 p[5,4] + 0.0244140625 p[5,5] <= 0.0258
 B_lb_1,_2: 0.125 p[1,2] + 0.1875 p[1,3] + 0.1875 p[1,4] + 0.15625 p[1,5]
   + 0.125 p[2,2] + 0.1875 p[2,3] + 0.1875 p[2,4] + 0.15625 p[2,5]
   + 0.09375 p[3,2] + 0.140625 p[3,3] + 0.140625 p[3,4] + 0.1171875 p[3,5]
   + 0.0625 p[4,2] + 0.09375 p[4,3] + 0.09375 p[4,4] + 0.078125 p[4,5]
   + 0.0390625 p[5,2] + 0.05859375 p[5,3] + 0.05859375 p[5,4]
   + 0.048828125 p[5,5] >= -0.0116666666666667
 B_ub_1,_2: 0.125 p[1,2] + 0.1875 p[1,3] + 0.1875 p[1,4] + 0.15625 p[1,5]
   + 0.125 p[2,2] + 0.1875 p[2,3] + 0.1875 p[2,4] + 0.15625 p[2,5]
   + 0.09375 p[3,2] + 0.140625 p[3,3] + 0.140625 p[3,4] + 0.1171875 p[3,5]
   + 0.0625 p[4,2] + 0.09375 p[4,3] + 0.09375 p[4,4] + 0.078125 p[4,5]
   + 0.0390625 p[5,2] + 0.05859375 p[5,3] + 0.05859375 p[5,4]
   + 0.048828125 p[5,5] <= 0.0048
 B_lb_2,_0: 0.25 p[2,0] + 0.125 p[2,1] + 0.0625 p[2,2] + 0.03125 p[2,3]
   + 0.015625 p[2,4] + 0.0078125 p[2,5] + 0.375 p[3,0] + 0.1875 p[3,1]
   + 0.09375 p[3,2] + 0.046875 p[3,3] + 0.0234375 p[3,4]
   + 0.01171875 p[3,5] + 0.375 p[4,0] + 0.1875 p[4,1] + 0.09375 p[4,2]
   + 0.046875 p[4,3] + 0.0234375 p[4,4] + 0.01171875 p[4,5] + 0.3125 p[5,0]
   + 0.15625 p[5,1] + 0.078125 p[5,2] + 0.0390625 p[5,3]
   + 0.01953125 p[5,4] + 0.009765625 p[5,5] >= 0.0107333333333333
 B_ub_2,_0: 0.25 p[2,0] + 0.125 p[2,1] + 0.0625 p[2,2] + 0.03125 p[2,3]
   + 0.015625 p[2,4] + 0.0078125 p[2,5] + 0.375 p[3,0] + 0.1875 p[3,1]
   + 0.09375 p[3,2] + 0.046875 p[3,3] + 0.0234375 p[3,4]
   + 0.01171875 p[3,5] + 0.375 p[4,0] + 0.1875 p[4,1] + 0.09375 p[4,2]
   + 0.046875 p[4,3] + 0.0234375 p[4,4] + 0.01171875 p[4,5] + 0.3125 p[5,0]
   + 0.15625 p[5,1] + 0.078125 p[5,2] + 0.0390625 p[5,3]
   + 0.01953125 p[5,4] + 0.009765625 p[5,5] <= 0.0336
 B_lb_2,_1: 0.125 p[2,1] + 0.125 p[2,2] + 0.09375 p[2,3] + 0.0625 p[2,4]
   + 0.0390625 p[2,5] + 0.1875 p[3,1] + 0.1875 p[3,2] + 0.140625 p[3,3]
   + 0.09375 p[3,4] + 0.05859375 p[3,5] + 0.1875 p[4,1] + 0.1875 p[4,2]
   + 0.140625 p[4,3] + 0.09375 p[4,4] + 0.05859375 p[4,5] + 0.15625 p[5,1]
   + 0.15625 p[5,2] + 0.1171875 p[5,3] + 0.078125 p[5,4]
   + 0.048828125 p[5,5] >= -0.0126666666666667
 B_ub_2,_1: 0.125 p[2,1] + 0.125 p[2,2] + 0.09375 p[2,3] + 0.0625 p[2,4]
   + 0.0390625 p[2,5] + 0.1875 p[3,1] + 0.1875 p[3,2] + 0.140625 p[3,3]
   + 0.09375 p[3,4] + 0.05859375 p[3,5] + 0.1875 p[4,1] + 0.1875 p[4,2]
   + 0.140625 p[4,3] + 0.09375 p[4,4] + 0.05859375 p[4,5] + 0.15625 p[5,1]
   + 0.15625 p[5,2] + 0.1171875 p[5,3] + 0.078125 p[5,4]
   + 0.048828125 p[5,5] <= 0.0032
 B_lb_2,_2: 0.0625 p[2,2] + 0.09375 p[2,3] + 0.09375 p[2,4]
   + 0.078125 p[2,5] + 0.09375 p[3,2] + 0.140625 p[3,3] + 0.140625 p[3,4]
   + 0.1171875 p[3,5] + 0.09375 p[4,2] + 0.140625 p[4,3] + 0.140625 p[4,4]
   + 0.1171875 p[4,5] + 0.078125 p[5,2] + 0.1171875 p[5,3]
   + 0.1171875 p[5,4] + 0.09765625 p[5,5] >= -0.0134666666666667
 B_ub_2,_2: 0.0625 p[2,2] + 0.09375 p[2,3] + 0.09375 p[2,4]
   + 0.078125 p[2,5] + 0.09375 p[3,2] + 0.140625 p[3,3] + 0.140625 p[3,4]
   + 0.1171875 p[3,5] + 0.09375 p[4,2] + 0.140625 p[4,3] + 0.140625 p[4,4]
   + 0.1171875 p[4,5] + 0.078125 p[5,2] + 0.1171875 p[5,3]
   + 0.1171875 p[5,4] + 0.09765625 p[5,5] <= 1
 B_marginal_lb_0: p1[0] + 0.5 p1[1] + 0.25 p1[2] + 0.125 p1[3]
   + 0.0625 p1[4] + 0.03125 p1[5] >= 0.6770666666666666
 B_marginal_ub_0: p1[0] + 0.5 p1[1] + 0.25 p1[2] + 0.125 p1[3]
   + 0.0625 p1[4] + 0.03125 p1[5] <= 0.79
 B_marginal_lb_1: 0.5 p1[1] + 0.5 p1[2] + 0.375 p1[3] + 0.25 p1[4]
   + 0.15625 p1[5] >= 0.0874666666666667
 B_marginal_ub_1: 0.5 p1[1] + 0.5 p1[2] + 0.375 p1[3] + 0.25 p1[4]
   + 0.15625 p1[5] <= 0.199
 B_marginal_lb_2: 0.25 p1[2] + 0.375 p1[3] + 0.375 p1[4] + 0.3125 p1[5]
   >= -0.0641333333333333
 B_marginal_ub_2: 0.25 p1[2] + 0.375 p1[3] + 0.375 p1[4] + 0.3125 p1[5]
   <= 0.036
 B_marginal_lb_0: p2[0] + 0.5 p2[1] + 0.25 p2[2] + 0.125 p2[3]
   + 0.0625 p2[4] + 0.03125 p2[5] >= 0.6407333333333334
 B_marginal_ub_0: p2[0] + 0.5 p2[1] + 0.25 p2[2] + 0.125 p2[3]
   + 0.0625 p2[4] + 0.03125 p2[5] <= 0.767
 B_marginal_lb_1: 0.5 p2[1] + 0.5 p2[2] + 0.375 p2[3] + 0.25 p2[4]
   + 0.15625 p2[5] >= 0.0889333333333334
 B_marginal_ub_1: 0.5 p2[1] + 0.5 p2[2] + 0.375 p2[3] + 0.25 p2[4]
   + 0.15625 p2[5] <= 0.2138
 B_marginal_lb_2: 0.25 p2[2] + 0.375 p2[3] + 0.375 p2[4] + 0.3125 p2[5]
   >= -0.0700666666666667
 B_marginal_ub_2: 0.25 p2[2] + 0.375 p2[3] + 0.375 p2[4] + 0.3125 p2[5]
   <= 0.042605
 frechet_lb_0,_0: - p[0,0] + p1[0] + p2[0] <= 1
 frechet_ub_x1_0: p[0,0] - p1[0] <= 0
 frechet_ub_x2_0: p[0,0] - p2[0] <= 0
 frechet_lb_0,_1: - p[0,1] + p1[0] + p2[1] <= 1
 frechet_ub_x1_0: p[0,1] - p1[0] <= 0
 frechet_ub_x2_1: p[0,1] - p2[1] <= 0
 frechet_lb_0,_2: - p[0,2] + p1[0] + p2[2] <= 1
 frechet_ub_x1_0: p[0,2] - p1[0] <= 0
 frechet_ub_x2_2: p[0,2] - p2[2] <= 0
 frechet_lb_0,_3: - p[0,3] + p1[0] + p2[3] <= 1
 frechet_ub_x1_0: p[0,3] - p1[0] <= 0
 frechet_ub_x2_3: p[0,3] - p2[3] <= 0
 frechet_lb_0,_4: - p[0,4] + p1[0] + p2[4] <= 1
 frechet_ub_x1_0: p[0,4] - p1[0] <= 0
 frechet_ub_x2_4: p[0,4] - p2[4] <= 0
 frechet_lb_0,_5: - p[0,5] + p1[0] + p2[5] <= 1
 frechet_ub_x1_0: p[0,5] - p1[0] <= 0
 frechet_ub_x2_5: p[0,5] - p2[5] <= 0
 frechet_lb_1,_0: - p[1,0] + p1[1] + p2[0] <= 1
 frechet_ub_x1_1: p[1,0] - p1[1] <= 0
 frechet_ub_x2_0: p[1,0] - p2[0] <= 0
 frechet_lb_1,_1: - p[1,1] + p1[1] + p2[1] <= 1
 frechet_ub_x1_1: p[1,1] - p1[1] <= 0
 frechet_ub_x2_1: p[1,1] - p2[1] <= 0
 frechet_lb_1,_2: - p[1,2] + p1[1] + p2[2] <= 1
 frechet_ub_x1_1: p[1,2] - p1[1] <= 0
 frechet_ub_x2_2: p[1,2] - p2[2] <= 0
 frechet_lb_1,_3: - p[1,3] + p1[1] + p2[3] <= 1
 frechet_ub_x1_1: p[1,3] - p1[1] <= 0
 frechet_ub_x2_3: p[1,3] - p2[3] <= 0
 frechet_lb_1,_4: - p[1,4] + p1[1] + p2[4] <= 1
 frechet_ub_x1_1: p[1,4] - p1[1] <= 0
 frechet_ub_x2_4: p[1,4] - p2[4] <= 0
 frechet_lb_1,_5: - p[1,5] + p1[1] + p2[5] <= 1
 frechet_ub_x1_1: p[1,5] - p1[1] <= 0
 frechet_ub_x2_5: p[1,5] - p2[5] <= 0
 frechet_lb_2,_0: - p[2,0] + p1[2] + p2[0] <= 1
 frechet_ub_x1_2: p[2,0] - p1[2] <= 0
 frechet_ub_x2_0: p[2,0] - p2[0] <= 0
 frechet_lb_2,_1: - p[2,1] + p1[2] + p2[1] <= 1
 frechet_ub_x1_2: p[2,1] - p1[2] <= 0
 frechet_ub_x2_1: p[2,1] - p2[1] <= 0
 frechet_lb_2,_2: - p[2,2] + p1[2] + p2[2] <= 1
 frechet_ub_x1_2: p[2,2] - p1[2] <= 0
 frechet_ub_x2_2: p[2,2] - p2[2] <= 0
 frechet_lb_2,_3: - p[2,3] + p1[2] + p2[3] <= 1
 frechet_ub_x1_2: p[2,3] - p1[2] <= 0
 frechet_ub_x2_3: p[2,3] - p2[3] <= 0
 frechet_lb_2,_4: - p[2,4] + p1[2] + p2[4] <= 1
 frechet_ub_x1_2: p[2,4] - p1[2] <= 0
 frechet_ub_x2_4: p[2,4] - p2[4] <= 0
 frechet_lb_2,_5: - p[2,5] + p1[2] + p2[5] <= 1
 frechet_ub_x1_2: p[2,5] - p1[2] <= 0
 frechet_ub_x2_5: p[2,5] - p2[5] <= 0
 frechet_lb_3,_0: - p[3,0] + p1[3] + p2[0] <= 1
 frechet_ub_x1_3: p[3,0] - p1[3] <= 0
 frechet_ub_x2_0: p[3,0] - p2[0] <= 0
 frechet_lb_3,_1: - p[3,1] + p1[3] + p2[1] <= 1
 frechet_ub_x1_3: p[3,1] - p1[3] <= 0
 frechet_ub_x2_1: p[3,1] - p2[1] <= 0
 frechet_lb_3,_2: - p[3,2] + p1[3] + p2[2] <= 1
 frechet_ub_x1_3: p[3,2] - p1[3] <= 0
 frechet_ub_x2_2: p[3,2] - p2[2] <= 0
 frechet_lb_3,_3: - p[3,3] + p1[3] + p2[3] <= 1
 frechet_ub_x1_3: p[3,3] - p1[3] <= 0
 frechet_ub_x2_3: p[3,3] - p2[3] <= 0
 frechet_lb_3,_4: - p[3,4] + p1[3] + p2[4] <= 1
 frechet_ub_x1_3: p[3,4] - p1[3] <= 0
 frechet_ub_x2_4: p[3,4] - p2[4] <= 0
 frechet_lb_3,_5: - p[3,5] + p1[3] + p2[5] <= 1
 frechet_ub_x1_3: p[3,5] - p1[3] <= 0
 frechet_ub_x2_5: p[3,5] - p2[5] <= 0
 frechet_lb_4,_0: - p[4,0] + p1[4] + p2[0] <= 1
 frechet_ub_x1_4: p[4,0] - p1[4] <= 0
 frechet_ub_x2_0: p[4,0] - p2[0] <= 0
 frechet_lb_4,_1: - p[4,1] + p1[4] + p2[1] <= 1
 frechet_ub_x1_4: p[4,1] - p1[4] <= 0
 frechet_ub_x2_1: p[4,1] - p2[1] <= 0
 frechet_lb_4,_2: - p[4,2] + p1[4] + p2[2] <= 1
 frechet_ub_x1_4: p[4,2] - p1[4] <= 0
 frechet_ub_x2_2: p[4,2] - p2[2] <= 0
 frechet_lb_4,_3: - p[4,3] + p1[4] + p2[3] <= 1
 frechet_ub_x1_4: p[4,3] - p1[4] <= 0
 frechet_ub_x2_3: p[4,3] - p2[3] <= 0
 frechet_lb_4,_4: - p[4,4] + p1[4] + p2[4] <= 1
 frechet_ub_x1_4: p[4,4] - p1[4] <= 0
 frechet_ub_x2_4: p[4,4] - p2[4] <= 0
 frechet_lb_4,_5: - p[4,5] + p1[4] + p2[5] <= 1
 frechet_ub_x1_4: p[4,5] - p1[4] <= 0
 frechet_ub_x2_5: p[4,5] - p2[5] <= 0
 frechet_lb_5,_0: - p[5,0] + p1[5] + p2[0] <= 1
 frechet_ub_x1_5: p[5,0] - p1[5] <= 0
 frechet_ub_x2_0: p[5,0] - p2[0] <= 0
 frechet_lb_5,_1: - p[5,1] + p1[5] + p2[1] <= 1
 frechet_ub_x1_5: p[5,1] - p1[5] <= 0
 frechet_ub_x2_1: p[5,1] - p2[1] <= 0
 frechet_lb_5,_2: - p[5,2] + p1[5] + p2[2] <= 1
 frechet_ub_x1_5: p[5,2] - p1[5] <= 0
 frechet_ub_x2_2: p[5,2] - p2[2] <= 0
 frechet_lb_5,_3: - p[5,3] + p1[5] + p2[3] <= 1
 frechet_ub_x1_5: p[5,3] - p1[5] <= 0
 frechet_ub_x2_3: p[5,3] - p2[3] <= 0
 frechet_lb_5,_4: - p[5,4] + p1[5] + p2[4] <= 1
 frechet_ub_x1_5: p[5,4] - p1[5] <= 0
 frechet_ub_x2_4: p[5,4] - p2[4] <= 0
 frechet_lb_5,_5: - p[5,5] + p1[5] + p2[5] <= 1
 frechet_ub_x1_5: p[5,5] - p1[5] <= 0
 frechet_ub_x2_5: p[5,5] - p2[5] <= 0
 Distribution: p[0,0] + p[0,1] + p[0,2] + p[0,3] + p[0,4] + p[0,5] + p[1,0]
   + p[1,1] + p[1,2] + p[1,3] + p[1,4] + p[1,5] + p[2,0] + p[2,1] + p[2,2]
   + p[2,3] + p[2,4] + p[2,5] + p[3,0] + p[3,1] + p[3,2] + p[3,3] + p[3,4]
   + p[3,5] + p[4,0] + p[4,1] + p[4,2] + p[4,3] + p[4,4] + p[4,5] + p[5,0]
   + p[5,1] + p[5,2] + p[5,3] + p[5,4] + p[5,5] <= 1
 Distribution_x1: p1[0] + p1[1] + p1[2] + p1[3] + p1[4] + p1[5] <= 1
 Distribution_x2: p2[0] + p2[1] + p2[2] + p2[3] + p2[4] + p2[5] <= 1
 Equation_0,_0: [ - p[0,0] * k_tx_1 - p[0,0] * k_tx_2 + p[0,1] * k_deg_2
   + p[1,0] * k_deg_1 + p[1,1] * k_reg ] = 0
 Equation_0,_1: [ p[0,0] * k_tx_2 - p[0,1] * k_tx_1 - p[0,1] * k_tx_2
   - p[0,1] * k_deg_2 + 2 p[0,2] * k_deg_2 + p[1,1] * k_deg_1
   + 2 p[1,2] * k_reg ] = 0
 Equation_0,_2: [ p[0,1] * k_tx_2 - p[0,2] * k_tx_1 - p[0,2] * k_tx_2
   - 2 p[0,2] * k_deg_2 + 3 p[0,3] * k_deg_2 + p[1,2] * k_deg_1
   + 3 p[1,3] * k_reg ] = 0
 Equation_0,_3: [ p[0,2] * k_tx_2 - p[0,3] * k_tx_1 - p[0,3] * k_tx_2
   - 3 p[0,3] * k_deg_2 + 4 p[0,4] * k_deg_2 + p[1,3] * k_deg_1
   + 4 p[1,4] * k_reg ] = 0
 Equation_0,_4: [ p[0,3] * k_tx_2 - p[0,4] * k_tx_1 - p[0,4] * k_tx_2
   - 4 p[0,4] * k_deg_2 + 5 p[0,5] * k_deg_2 + p[1,4] * k_deg_1
   + 5 p[1,5] * k_reg ] = 0
 Equation_1,_0: [ p[0,0] * k_tx_1 - p[1,0] * k_tx_1 - p[1,0] * k_tx_2
   - p[1,0] * k_deg_1 + p[1,1] * k_deg_2 + 2 p[2,0] * k_deg_1
   + 2 p[2,1] * k_reg ] = 0
 Equation_1,_1: [ p[0,1] * k_tx_1 + p[1,0] * k_tx_2 - p[1,1] * k_tx_1
   - p[1,1] * k_tx_2 - p[1,1] * k_deg_1 - p[1,1] * k_deg_2 - p[1,1] * k_reg
   + 2 p[1,2] * k_deg_2 + 2 p[2,1] * k_deg_1 + 4 p[2,2] * k_reg ] = 0
 Equation_1,_2: [ p[0,2] * k_tx_1 + p[1,1] * k_tx_2 - p[1,2] * k_tx_1
   - p[1,2] * k_tx_2 - p[1,2] * k_deg_1 - 2 p[1,2] * k_deg_2
   - 2 p[1,2] * k_reg + 3 p[1,3] * k_deg_2 + 2 p[2,2] * k_deg_1
   + 6 p[2,3] * k_reg ] = 0
 Equation_1,_3: [ p[0,3] * k_tx_1 + p[1,2] * k_tx_2 - p[1,3] * k_tx_1
   - p[1,3] * k_tx_2 - p[1,3] * k_deg_1 - 3 p[1,3] * k_deg_2
   - 3 p[1,3] * k_reg + 4 p[1,4] * k_deg_2 + 2 p[2,3] * k_deg_1
   + 8 p[2,4] * k_reg ] = 0
 Equation_1,_4: [ p[0,4] * k_tx_1 + p[1,3] * k_tx_2 - p[1,4] * k_tx_1
   - p[1,4] * k_tx_2 - p[1,4] * k_deg_1 - 4 p[1,4] * k_deg_2
   - 4 p[1,4] * k_reg + 5 p[1,5] * k_deg_2 + 2 p[2,4] * k_deg_1
   + 10 p[2,5] * k_reg ] = 0
 Equation_2,_0: [ p[1,0] * k_tx_1 - p[2,0] * k_tx_1 - p[2,0] * k_tx_2
   - 2 p[2,0] * k_deg_1 + p[2,1] * k_deg_2 + 3 p[3,0] * k_deg_1
   + 3 p[3,1] * k_reg ] = 0
 Equation_2,_1: [ p[1,1] * k_tx_1 + p[2,0] * k_tx_2 - p[2,1] * k_tx_1
   - p[2,1] * k_tx_2 - 2 p[2,1] * k_deg_1 - p[2,1] * k_deg_2
   - 2 p[2,1] * k_reg + 2 p[2,2] * k_deg_2 + 3 p[3,1] * k_deg_1
   + 6 p[3,2] * k_reg ] = 0
 Equation_2,_2: [ p[1,2] * k_tx_1 + p[2,1] * k_tx_2 - p[2,2] * k_tx_1
   - p[2,2] * k_tx_2 - 2 p[2,2] * k_deg_1 - 2 p[2,2] * k_deg_2
   - 4 p[2,2] * k_reg + 3 p[2,3] * k_deg_2 + 3 p[3,2] * k_deg_1
   + 9 p[3,3] * k_reg ] = 0
 Equation_2,_3: [ p[1,3] * k_tx_1 + p[2,2] * k_tx_2 - p[2,3] * k_tx_1
   - p[2,3] * k_tx_2 - 2 p[2,3] * k_deg_1 - 3 p[2,3] * k_deg_2
   - 6 p[2,3] * k_reg + 4 p[2,4] * k_deg_2 + 3 p[3,3] * k_deg_1
   + 12 p[3,4] * k_reg ] = 0
 Equation_2,_4: [ p[1,4] * k_tx_1 + p[2,3] * k_tx_2 - p[2,4] * k_tx_1
   - p[2,4] * k_tx_2 - 2 p[2,4] * k_deg_1 - 4 p[2,4] * k_deg_2
   - 8 p[2,4] * k_reg + 5 p[2,5] * k_deg_2 + 3 p[3,4] * k_deg_1
   + 15 p[3,5] * k_reg ] = 0
 Equation_3,_0: [ p[2,0] * k_tx_1 - p[3,0] * k_tx_1 - p[3,0] * k_tx_2
   - 3 p[3,0] * k_deg_1 + p[3,1] * k_deg_2 + 4 p[4,0] * k_deg_1
   + 4 p[4,1] * k_reg ] = 0
 Equation_3,_1: [ p[2,1] * k_tx_1 + p[3,0] * k_tx_2 - p[3,1] * k_tx_1
   - p[3,1] * k_tx_2 - 3 p[3,1] * k_deg_1 - p[3,1] * k_deg_2
   - 3 p[3,1] * k_reg + 2 p[3,2] * k_deg_2 + 4 p[4,1] * k_deg_1
   + 8 p[4,2] * k_reg ] = 0
 Equation_3,_2: [ p[2,2] * k_tx_1 + p[3,1] * k_tx_2 - p[3,2] * k_tx_1
   - p[3,2] * k_tx_2 - 3 p[3,2] * k_deg_1 - 2 p[3,2] * k_deg_2
   - 6 p[3,2] * k_reg + 3 p[3,3] * k_deg_2 + 4 p[4,2] * k_deg_1
   + 12 p[4,3] * k_reg ] = 0
 Equation_3,_3: [ p[2,3] * k_tx_1 + p[3,2] * k_tx_2 - p[3,3] * k_tx_1
   - p[3,3] * k_tx_2 - 3 p[3,3] * k_deg_1 - 3 p[3,3] * k_deg_2
   - 9 p[3,3] * k_reg + 4 p[3,4] * k_deg_2 + 4 p[4,3] * k_deg_1
   + 16 p[4,4] * k_reg ] = 0
 Equation_3,_4: [ p[2,4] * k_tx_1 + p[3,3] * k_tx_2 - p[3,4] * k_tx_1
   - p[3,4] * k_tx_2 - 3 p[3,4] * k_deg_1 - 4 p[3,4] * k_deg_2
   - 12 p[3,4] * k_reg + 5 p[3,5] * k_deg_2 + 4 p[4,4] * k_deg_1
   + 20 p[4,5] * k_reg ] = 0
 Equation_4,_0: [ p[3,0] * k_tx_1 - p[4,0] * k_tx_1 - p[4,0] * k_tx_2
   - 4 p[4,0] * k_deg_1 + p[4,1] * k_deg_2 + 5 p[5,0] * k_deg_1
   + 5 p[5,1] * k_reg ] = 0
 Equation_4,_1: [ p[3,1] * k_tx_1 + p[4,0] * k_tx_2 - p[4,1] * k_tx_1
   - p[4,1] * k_tx_2 - 4 p[4,1] * k_deg_1 - p[4,1] * k_deg_2
   - 4 p[4,1] * k_reg + 2 p[4,2] * k_deg_2 + 5 p[5,1] * k_deg_1
   + 10 p[5,2] * k_reg ] = 0
 Equation_4,_2: [ p[3,2] * k_tx_1 + p[4,1] * k_tx_2 - p[4,2] * k_tx_1
   - p[4,2] * k_tx_2 - 4 p[4,2] * k_deg_1 - 2 p[4,2] * k_deg_2
   - 8 p[4,2] * k_reg + 3 p[4,3] * k_deg_2 + 5 p[5,2] * k_deg_1
   + 15 p[5,3] * k_reg ] = 0
 Equation_4,_3: [ p[3,3] * k_tx_1 + p[4,2] * k_tx_2 - p[4,3] * k_tx_1
   - p[4,3] * k_tx_2 - 4 p[4,3] * k_deg_1 - 3 p[4,3] * k_deg_2
   - 12 p[4,3] * k_reg + 4 p[4,4] * k_deg_2 + 5 p[5,3] * k_deg_1
   + 20 p[5,4] * k_reg ] = 0
 Equation_4,_4: [ p[3,4] * k_tx_1 + p[4,3] * k_tx_2 - p[4,4] * k_tx_1
   - p[4,4] * k_tx_2 - 4 p[4,4] * k_deg_1 - 4 p[4,4] * k_deg_2
   - 16 p[4,4] * k_reg + 5 p[4,5] * k_deg_2 + 5 p[5,4] * k_deg_1
   + 25 p[5,5] * k_reg ] = 0
Bounds
 p[0,0] <= 1
 p[0,1] <= 1
 p[0,2] <= 1
 p[0,3] <= 1
 p[0,4] <= 1
 p[0,5] <= 1
 p[1,0] <= 1
 p[1,1] <= 1
 p[1,2] <= 1
 p[1,3] <= 1
 p[1,4] <= 1
 p[1,5] <= 1
 p[2,0] <= 1
 p[2,1] <= 1
 p[2,2] <= 1
 p[2,3] <= 1
 p[2,4] <= 1
 p[2,5] <= 1
 p[3,0] <= 1
 p[3,1] <= 1
 p[3,2] <= 1
 p[3,3] <= 1
 p[3,4] <= 1
 p[3,5] <= 1
 p[4,0] <= 1
 p[4,1] <= 1
 p[4,2] <= 1
 p[4,3] <= 1
 p[4,4] <= 1
 p[4,5] <= 1
 p[5,0] <= 1
 p[5,1] <= 1
 p[5,2] <= 1
 p[5,3] <= 1
 p[5,4] <= 1
 p[5,5] <= 1
 p1[0] <= 1
 p1[1] <= 1
 p1[2] <= 1
 p1[3] <= 1
 p1[4] <= 1
 p1[5] <= 1
 p2[0] <= 1
 p2[1] <= 1
 p2[2] <= 1
 p2[3] <= 1
 p2[4] <= 1
 p2[5] <= 1
 k_tx_1 <= 10
 k_tx_2 <= 10
 k_deg_1 <= 10
 k_deg_2 <= 10
 k_reg <= 10
End
